c Gilbert's random graph G(n,p), whith n = 5 and p = 0.9
c p is the probability for the independent edges to exist
c
c seed id 1360866350
c
p edge 5 9
e 1 2
e 1 3
e 1 4
e 1 5
e 2 4
e 2 5
e 3 4
e 3 5
e 4 5
